(set-info :smt-lib-version 2.6)
(set-logic LRA)
(set-info :source |
   Monniaux, David; Quantifier Elimination by Lazy Model Enumeration, CAV 2010
|)
(set-info :category "random")
; ./Mjollnir_examples/B1/formula_247.m
(set-info :status sat)
(assert
 (forall ((|v9:0| Real) )(exists ((|v8:1| Real) )(forall ((|v7:2| Real) )(exists ((|v6:3| Real) )(forall ((|v5:4| Real) )(exists ((|v4:5| Real) )(forall ((|v3:6| Real) )(exists ((|v2:7| Real) )(forall ((|v1:8| Real) )(exists ((|v0:9| Real) )(let ((?x21 (+ (+ (* 13 |v6:3|) (* (- 15) |v2:7|)) (* (- 13) |v3:6|))))
(<= ?x21 (- 20))))
)
)
)
)
)
)
)
)
)
)
(check-sat)
(exit)

